30 3 88 194 79 110 109 
62 120 193 97 145 87 42 123 
73 111 
133 41 175 13 151 16 52 59 
32 103 80 154 169 89 105 179 198 56 
131 38 40 122 90 117 107 
21 26 173 25 172 81 138 49 63 
164 66 12 129 11 2 139 17 74 149 
60 82 180 84 61 100 1 99 53 
23 58 153 14 96 162 158 
57 27 86 91 167 34 95 
178 135 54 185 132 140 28 
101 144 160 31 70 165 188 108 
170 134 50 47 94 64 183 
93 55 152 196 71 157 137 
177 102 35 76 9 189 
45 116 143 46 37 181 187 142 
113 44 124 141 69 51 15 
190 5 192 68 106 72 39 
155 19 150 126 121 136 
20 83 166 24 29 130 92 
48 85 156 112 168 77 
114 159 176 36 4 
161 104 18 43 200 174 
118 10 186 199 195 
148 65 163 67 
147 191 125 33 
171 197 128 7 
78 22 127 98 
119 115 
182 146 
75 
8 184 
6 

